nodes = 286;
edges = 688;
starts = [1, 1, 2, 3, 3, 4, 5, 5, 6, 7, 7, 8, 9, 10, 11, 11, 12, 13, 13, 15, 15, 16, 17, 18, 19, 20, 21, 21, 22, 23, 24, 25, 26, 27, 27, 29, 29, 30, 31, 31, 32, 33, 34, 35, 35, 36, 37, 38, 39, 39, 40, 41, 41, 42, 43, 43, 44, 46, 47, 48, 48, 49, 50, 50, 51, 52, 53, 54, 55, 56, 56, 57, 58, 58, 59, 60, 61, 62, 62, 64, 64, 65, 66, 66, 67, 68, 69, 70, 73, 74, 75, 75, 76, 77, 78, 79, 80, 81, 81, 82, 83, 83, 84, 85, 86, 87, 87, 88, 89, 89, 90, 91, 91, 92, 93, 93, 94, 95, 96, 96, 97, 98, 98, 99, 100, 100, 101, 102, 102, 103, 104, 105, 106, 107, 108, 108, 110, 110, 111, 112, 112, 113, 114, 114, 115, 116, 116, 118, 118, 120, 121, 121, 122, 123, 123, 124, 126, 127, 128, 129, 129, 130, 131, 131, 133, 133, 134, 135, 136, 137, 137, 138, 139, 139, 140, 141, 142, 143, 144, 144, 145, 146, 146, 148, 149, 150, 151, 152, 152, 153, 154, 154, 155, 156, 156, 158, 158, 159, 160, 161, 162, 162, 163, 164, 164, 165, 166, 168, 169, 169, 170, 171, 171, 172, 173, 174, 175, 176, 177, 177, 178, 179, 179, 180, 181, 181, 182, 183, 183, 184, 185, 187, 187, 188, 189, 189, 190, 191, 192, 193, 194, 194, 195, 196, 196, 197, 198, 199, 201, 202, 204, 204, 205, 206, 207, 208, 208, 209, 210, 212, 213, 214, 214, 216, 217, 217, 219, 219, 220, 221, 222, 223, 223, 224, 225, 225, 226, 227, 227, 228, 229, 229, 230, 231, 231, 232, 233, 234, 235, 236, 237, 237, 238, 239, 240, 240, 242, 242, 243, 244, 244, 245, 246, 246, 247, 248, 248, 249, 250, 250, 251, 252, 252, 253, 254, 254, 255, 256, 256, 257, 258, 259, 260, 262, 262, 264, 265, 266, 267, 268, 269, 271, 272, 273, 274, 275, 277, 279, 280, 281, 282, 283, 284, 285, 2, 24, 3, 4, 26, 5, 6, 28, 7, 8, 30, 9, 10, 11, 12, 34, 13, 14, 36, 16, 38, 17, 18, 19, 42, 21, 22, 44, 23, 46, 25, 26, 27, 28, 51, 30, 53, 31, 32, 55, 33, 57, 35, 36, 59, 37, 38, 39, 40, 63, 41, 42, 65, 43, 44, 67, 45, 47, 71, 49, 72, 50, 51, 74, 52, 53, 54, 78, 56, 57, 80, 58, 59, 82, 60, 84, 62, 63, 86, 65, 88, 66, 67, 90, 68, 69, 70, 94, 74, 75, 76, 99, 77, 78, 79, 80, 81, 82, 105, 83, 84, 107, 85, 109, 87, 88, 111, 89, 90, 113, 91, 92, 115, 93, 94, 117, 95, 119, 97, 120, 98, 99, 122, 100, 101, 124, 102, 103, 126, 104, 128, 106, 130, 108, 109, 132, 111, 134, 112, 113, 136, 114, 115, 138, 116, 117, 140, 119, 142, 121, 122, 145, 123, 124, 147, 125, 127, 151, 129, 130, 153, 131, 132, 155, 134, 157, 135, 159, 137, 138, 161, 139, 140, 163, 141, 165, 143, 167, 145, 168, 146, 147, 170, 172, 150, 174, 152, 153, 176, 154, 155, 178, 156, 157, 180, 159, 182, 160, 161, 162, 163, 186, 164, 165, 188, 166, 167, 169, 170, 193, 171, 172, 195, 173, 174, 175, 176, 177, 178, 201, 179, 180, 203, 181, 182, 205, 183, 184, 207, 185, 186, 188, 211, 189, 190, 213, 191, 215, 193, 194, 195, 218, 196, 197, 220, 198, 199, 200, 202, 203, 205, 228, 206, 230, 208, 209, 232, 210, 234, 213, 214, 215, 238, 217, 218, 241, 220, 243, 221, 222, 223, 224, 247, 225, 226, 249, 227, 228, 251, 229, 230, 253, 231, 232, 255, 233, 234, 235, 236, 237, 238, 261, 239, 263, 241, 264, 243, 266, 244, 245, 268, 246, 247, 270, 248, 249, 272, 250, 251, 274, 252, 253, 276, 254, 255, 278, 256, 257, 280, 258, 282, 260, 261, 263, 286, 265, 266, 267, 268, 269, 270, 272, 273, 274, 275, 276, 278, 280, 281, 282, 283, 284, 285, 286];
ends = [2, 24, 3, 4, 26, 5, 6, 28, 7, 8, 30, 9, 10, 11, 12, 34, 13, 14, 36, 16, 38, 17, 18, 19, 42, 21, 22, 44, 23, 46, 25, 26, 27, 28, 51, 30, 53, 31, 32, 55, 33, 57, 35, 36, 59, 37, 38, 39, 40, 63, 41, 42, 65, 43, 44, 67, 45, 47, 71, 49, 72, 50, 51, 74, 52, 53, 54, 78, 56, 57, 80, 58, 59, 82, 60, 84, 62, 63, 86, 65, 88, 66, 67, 90, 68, 69, 70, 94, 74, 75, 76, 99, 77, 78, 79, 80, 81, 82, 105, 83, 84, 107, 85, 109, 87, 88, 111, 89, 90, 113, 91, 92, 115, 93, 94, 117, 95, 119, 97, 120, 98, 99, 122, 100, 101, 124, 102, 103, 126, 104, 128, 106, 130, 108, 109, 132, 111, 134, 112, 113, 136, 114, 115, 138, 116, 117, 140, 119, 142, 121, 122, 145, 123, 124, 147, 125, 127, 151, 129, 130, 153, 131, 132, 155, 134, 157, 135, 159, 137, 138, 161, 139, 140, 163, 141, 165, 143, 167, 145, 168, 146, 147, 170, 172, 150, 174, 152, 153, 176, 154, 155, 178, 156, 157, 180, 159, 182, 160, 161, 162, 163, 186, 164, 165, 188, 166, 167, 169, 170, 193, 171, 172, 195, 173, 174, 175, 176, 177, 178, 201, 179, 180, 203, 181, 182, 205, 183, 184, 207, 185, 186, 188, 211, 189, 190, 213, 191, 215, 193, 194, 195, 218, 196, 197, 220, 198, 199, 200, 202, 203, 205, 228, 206, 230, 208, 209, 232, 210, 234, 213, 214, 215, 238, 217, 218, 241, 220, 243, 221, 222, 223, 224, 247, 225, 226, 249, 227, 228, 251, 229, 230, 253, 231, 232, 255, 233, 234, 235, 236, 237, 238, 261, 239, 263, 241, 264, 243, 266, 244, 245, 268, 246, 247, 270, 248, 249, 272, 250, 251, 274, 252, 253, 276, 254, 255, 278, 256, 257, 280, 258, 282, 260, 261, 263, 286, 265, 266, 267, 268, 269, 270, 272, 273, 274, 275, 276, 278, 280, 281, 282, 283, 284, 285, 286, 1, 1, 2, 3, 3, 4, 5, 5, 6, 7, 7, 8, 9, 10, 11, 11, 12, 13, 13, 15, 15, 16, 17, 18, 19, 20, 21, 21, 22, 23, 24, 25, 26, 27, 27, 29, 29, 30, 31, 31, 32, 33, 34, 35, 35, 36, 37, 38, 39, 39, 40, 41, 41, 42, 43, 43, 44, 46, 47, 48, 48, 49, 50, 50, 51, 52, 53, 54, 55, 56, 56, 57, 58, 58, 59, 60, 61, 62, 62, 64, 64, 65, 66, 66, 67, 68, 69, 70, 73, 74, 75, 75, 76, 77, 78, 79, 80, 81, 81, 82, 83, 83, 84, 85, 86, 87, 87, 88, 89, 89, 90, 91, 91, 92, 93, 93, 94, 95, 96, 96, 97, 98, 98, 99, 100, 100, 101, 102, 102, 103, 104, 105, 106, 107, 108, 108, 110, 110, 111, 112, 112, 113, 114, 114, 115, 116, 116, 118, 118, 120, 121, 121, 122, 123, 123, 124, 126, 127, 128, 129, 129, 130, 131, 131, 133, 133, 134, 135, 136, 137, 137, 138, 139, 139, 140, 141, 142, 143, 144, 144, 145, 146, 146, 148, 149, 150, 151, 152, 152, 153, 154, 154, 155, 156, 156, 158, 158, 159, 160, 161, 162, 162, 163, 164, 164, 165, 166, 168, 169, 169, 170, 171, 171, 172, 173, 174, 175, 176, 177, 177, 178, 179, 179, 180, 181, 181, 182, 183, 183, 184, 185, 187, 187, 188, 189, 189, 190, 191, 192, 193, 194, 194, 195, 196, 196, 197, 198, 199, 201, 202, 204, 204, 205, 206, 207, 208, 208, 209, 210, 212, 213, 214, 214, 216, 217, 217, 219, 219, 220, 221, 222, 223, 223, 224, 225, 225, 226, 227, 227, 228, 229, 229, 230, 231, 231, 232, 233, 234, 235, 236, 237, 237, 238, 239, 240, 240, 242, 242, 243, 244, 244, 245, 246, 246, 247, 248, 248, 249, 250, 250, 251, 252, 252, 253, 254, 254, 255, 256, 256, 257, 258, 259, 260, 262, 262, 264, 265, 266, 267, 268, 269, 271, 272, 273, 274, 275, 277, 279, 280, 281, 282, 283, 284, 285];
weights = [5, 12, 1, 4, 15, 1, 18, 7, 7, 9, 19, 13, 9, 15, 13, 18, 5, 14, 2, 10, 4, 13, 3, 1, 16, 14, 3, 3, 7, 3, 3, 10, 8, 11, 18, 17, 6, 3, 1, 15, 16, 19, 9, 8, 6, 4, 7, 1, 2, 4, 8, 1, 3, 7, 7, 12, 3, 1, 11, 7, 1, 6, 14, 9, 17, 10, 15, 16, 3, 1, 5, 8, 4, 12, 8, 11, 14, 3, 2, 5, 19, 3, 9, 8, 10, 9, 7, 6, 7, 15, 7, 6, 18, 6, 13, 3, 8, 1, 1, 13, 17, 16, 5, 4, 15, 3, 14, 16, 13, 8, 14, 18, 11, 6, 17, 15, 2, 12, 11, 18, 5, 18, 3, 11, 3, 4, 18, 3, 11, 1, 15, 10, 1, 11, 11, 18, 1, 5, 5, 17, 15, 1, 10, 17, 8, 1, 13, 9, 16, 5, 11, 2, 9, 1, 1, 7, 1, 8, 1, 15, 16, 3, 17, 9, 2, 10, 9, 15, 7, 13, 14, 16, 1, 19, 14, 17, 15, 15, 6, 5, 6, 8, 7, 14, 8, 12, 8, 9, 2, 1, 1, 6, 14, 1, 4, 1, 1, 12, 2, 8, 7, 4, 2, 6, 5, 10, 1, 14, 17, 1, 19, 4, 8, 6, 16, 13, 5, 7, 11, 11, 18, 15, 6, 16, 19, 12, 17, 15, 15, 6, 3, 13, 13, 3, 9, 1, 2, 14, 3, 12, 19, 5, 7, 11, 3, 10, 6, 12, 12, 11, 16, 7, 16, 3, 4, 7, 4, 5, 6, 2, 10, 8, 9, 18, 13, 11, 4, 13, 11, 2, 2, 13, 7, 1, 2, 16, 10, 6, 9, 16, 5, 1, 10, 10, 17, 8, 4, 16, 5, 17, 4, 7, 2, 4, 18, 14, 9, 7, 3, 5, 4, 15, 18, 3, 6, 5, 7, 10, 4, 15, 10, 7, 19, 8, 8, 8, 18, 17, 17, 11, 11, 2, 18, 14, 14, 2, 18, 6, 16, 14, 11, 2, 4, 1, 17, 6, 17, 10, 5, 17, 5, 1, 1, 1, 5, 12, 1, 4, 15, 1, 18, 7, 7, 9, 19, 13, 9, 15, 13, 18, 5, 14, 2, 10, 4, 13, 3, 1, 16, 14, 3, 3, 7, 3, 3, 10, 8, 11, 18, 17, 6, 3, 1, 15, 16, 19, 9, 8, 6, 4, 7, 1, 2, 4, 8, 1, 3, 7, 7, 12, 3, 1, 11, 7, 1, 6, 14, 9, 17, 10, 15, 16, 3, 1, 5, 8, 4, 12, 8, 11, 14, 3, 2, 5, 19, 3, 9, 8, 10, 9, 7, 6, 7, 15, 7, 6, 18, 6, 13, 3, 8, 1, 1, 13, 17, 16, 5, 4, 15, 3, 14, 16, 13, 8, 14, 18, 11, 6, 17, 15, 2, 12, 11, 18, 5, 18, 3, 11, 3, 4, 18, 3, 11, 1, 15, 10, 1, 11, 11, 18, 1, 5, 5, 17, 15, 1, 10, 17, 8, 1, 13, 9, 16, 5, 11, 2, 9, 1, 1, 7, 1, 8, 1, 15, 16, 3, 17, 9, 2, 10, 9, 15, 7, 13, 14, 16, 1, 19, 14, 17, 15, 15, 6, 5, 6, 8, 7, 14, 8, 12, 8, 9, 2, 1, 1, 6, 14, 1, 4, 1, 1, 12, 2, 8, 7, 4, 2, 6, 5, 10, 1, 14, 17, 1, 19, 4, 8, 6, 16, 13, 5, 7, 11, 11, 18, 15, 6, 16, 19, 12, 17, 15, 15, 6, 3, 13, 13, 3, 9, 1, 2, 14, 3, 12, 19, 5, 7, 11, 3, 10, 6, 12, 12, 11, 16, 7, 16, 3, 4, 7, 4, 5, 6, 2, 10, 8, 9, 18, 13, 11, 4, 13, 11, 2, 2, 13, 7, 1, 2, 16, 10, 6, 9, 16, 5, 1, 10, 10, 17, 8, 4, 16, 5, 17, 4, 7, 2, 4, 18, 14, 9, 7, 3, 5, 4, 15, 18, 3, 6, 5, 7, 10, 4, 15, 10, 7, 19, 8, 8, 8, 18, 17, 17, 11, 11, 2, 18, 14, 14, 2, 18, 6, 16, 14, 11, 2, 4, 1, 17, 6, 17, 10, 5, 17, 5, 1, 1, 1];
start = 1;
end= 286;
tasks = 6;
task = array2d(1..tasks, 1..nodes, [0, 0, 0, 0, 0, 0, 0, 0, 0, 0, 0, 0, 0, 0, 0, 0, 0, 0, 0, 0, 0, 0, 0, 0, 0, 0, 0, 0, 0, 0, 0, 0, 0, 0, 0, 0, 0, 0, 0, 0, 0, 0, 0, 0, 0, 0, 0, 0, 0, 0, 0, 0, 0, 0, 0, 0, 0, 0, 0, 0, 0, 0, 0, 0, 0, 0, 0, 0, 0, 0, 0, 0, 0, 0, 0, 0, 0, 0, 0, 1, 0, 0, 0, 0, 0, 0, 0, 0, 0, 0, 0, 0, 0, 0, 0, 0, 0, 0, 0, 0, 0, 0, 0, 0, 0, 0, 0, 0, 0, 0, 0, 0, 0, 0, 0, 0, 0, 0, 0, 0, 0, 0, 0, 0, 0, 0, 0, 0, 0, 0, 0, 0, 0, 0, 0, 0, 0, 0, 0, 0, 0, 0, 0, 0, 0, 0, 0, 0, 0, 0, 0, 0, 0, 0, 0, 0, 0, 0, 0, 0, 0, 0, 0, 0, 0, 0, 0, 0, 0, 0, 0, 0, 0, 0, 0, 0, 0, 0, 0, 0, 0, 0, 0, 0, 0, 0, 0, 0, 0, 0, 0, 0, 0, 0, 0, 0, 0, 0, 0, 0, 0, 0, 0, 0, 0, 0, 0, 0, 0, 0, 0, 0, 0, 0, 0, 0, 0, 0, 0, 0, 0, 0, 0, 0, 0, 0, 0, 0, 0, 0, 0, 0, 0, 0, 0, 0, 0, 0, 0, 0, 0, 0, 0, 0, 0, 0, 0, 0, 0, 0, 0, 0, 0, 0, 0, 0, 0, 0, 0, 0, 0, 0, 0, 0, 0, 0, 0, 0, 0, 0, 0, 0, 0, 0, 0, 0, 0, 0, 0, 0, 0, 0, 0, 0, 0, 0, 0, 0, 0, 0, 0, 0, 0, 0, 0, 0, 0, 0, 0, 0, 0, 0, 0, 0, 0, 0, 0, 0, 0, 0, 0, 0, 0, 0, 0, 0, 0, 0, 0, 0, 0, 0, 0, 0, 0, 0, 0, 0, 0, 0, 0, 0, 0, 0, 0, 0, 0, 0, 0, 0, 0, 0, 0, 0, 0, 0, 0, 0, 0, 0, 0, 0, 0, 0, 0, 0, 0, 0, 0, 0, 0, 0, 0, 0, 0, 0, 0, 0, 0, 0, 0, 0, 0, 0, 0, 0, 0, 0, 0, 0, 0, 0, 0, 0, 0, 0, 0, 0, 0, 0, 0, 0, 0, 0, 0, 0, 0, 0, 0, 0, 0, 0, 0, 0, 0, 0, 0, 0, 0, 0, 0, 0, 0, 0, 0, 0, 0, 0, 1, 0, 0, 0, 0, 0, 0, 0, 0, 0, 0, 0, 0, 0, 0, 0, 0, 0, 0, 0, 0, 0, 0, 0, 0, 0, 0, 0, 0, 0, 0, 0, 0, 0, 0, 0, 0, 0, 0, 0, 0, 0, 0, 0, 0, 0, 0, 0, 0, 0, 0, 0, 0, 0, 0, 0, 0, 0, 0, 0, 0, 0, 0, 0, 0, 0, 0, 0, 0, 0, 0, 0, 0, 0, 0, 0, 0, 0, 0, 0, 0, 0, 0, 0, 0, 0, 0, 0, 0, 0, 0, 0, 0, 0, 0, 0, 0, 0, 0, 0, 0, 0, 0, 0, 0, 0, 0, 0, 0, 0, 0, 0, 0, 0, 0, 0, 0, 0, 0, 0, 0, 0, 0, 0, 0, 0, 0, 0, 0, 0, 0, 0, 0, 0, 0, 0, 0, 0, 0, 0, 0, 0, 0, 0, 0, 0, 0, 0, 0, 0, 0, 0, 0, 0, 0, 0, 0, 0, 0, 0, 0, 0, 0, 0, 0, 0, 0, 0, 0, 0, 0, 0, 0, 0, 0, 0, 0, 0, 0, 0, 0, 0, 0, 0, 0, 0, 0, 0, 0, 0, 0, 0, 0, 0, 0, 0, 0, 0, 0, 0, 0, 0, 0, 0, 0, 0, 0, 0, 0, 0, 0, 0, 0, 0, 0, 0, 0, 0, 0, 0, 0, 0, 0, 0, 0, 0, 0, 0, 0, 0, 0, 0, 0, 0, 0, 0, 0, 0, 0, 0, 0, 0, 0, 0, 0, 0, 0, 0, 0, 0, 0, 0, 0, 0, 0, 0, 0, 0, 0, 0, 0, 0, 0, 0, 0, 0, 0, 0, 0, 0, 0, 0, 0, 0, 0, 0, 0, 0, 0, 0, 0, 0, 0, 0, 0, 0, 0, 0, 0, 0, 0, 0, 0, 0, 0, 0, 0, 0, 0, 0, 0, 0, 0, 0, 0, 0, 0, 0, 0, 0, 0, 0, 0, 0, 0, 0, 1, 0, 0, 0, 0, 0, 0, 0, 0, 0, 0, 0, 0, 0, 0, 0, 0, 0, 0, 0, 0, 0, 0, 0, 0, 0, 0, 0, 0, 0, 0, 0, 0, 0, 0, 0, 0, 0, 0, 0, 0, 0, 0, 0, 0, 0, 0, 0, 0, 0, 0, 0, 0, 0, 0, 0, 0, 0, 0, 0, 0, 0, 0, 0, 0, 0, 0, 0, 0, 0, 0, 0, 0, 0, 0, 0, 0, 0, 0, 0, 0, 0, 0, 0, 0, 0, 0, 0, 0, 0, 0, 0, 0, 0, 0, 0, 0, 0, 0, 0, 0, 0, 0, 0, 0, 0, 0, 0, 0, 0, 0, 0, 0, 0, 0, 0, 0, 0, 0, 0, 0, 0, 0, 0, 0, 0, 0, 0, 0, 0, 0, 0, 0, 0, 0, 0, 0, 0, 0, 0, 0, 0, 0, 0, 0, 0, 0, 0, 0, 0, 0, 0, 0, 0, 0, 0, 0, 0, 0, 0, 0, 0, 0, 0, 0, 0, 0, 0, 0, 0, 0, 0, 0, 0, 0, 0, 0, 0, 0, 0, 0, 0, 0, 0, 0, 0, 0, 0, 0, 0, 0, 0, 0, 0, 0, 0, 0, 0, 0, 0, 0, 0, 0, 0, 0, 0, 0, 0, 0, 0, 0, 0, 0, 0, 0, 0, 0, 0, 0, 0, 0, 0, 0, 0, 0, 0, 0, 0, 0, 0, 0, 0, 0, 0, 0, 0, 0, 0, 0, 0, 0, 0, 0, 0, 0, 0, 0, 0, 0, 0, 0, 0, 0, 0, 0, 0, 0, 0, 0, 0, 0, 0, 0, 0, 0, 0, 0, 0, 0, 0, 0, 0, 0, 0, 0, 0, 0, 0, 0, 0, 0, 0, 0, 0, 0, 0, 0, 0, 0, 0, 0, 0, 0, 0, 0, 0, 0, 0, 0, 0, 0, 0, 0, 0, 0, 0, 0, 0, 0, 0, 0, 0, 0, 0, 0, 0, 0, 0, 0, 0, 0, 0, 0, 0, 0, 0, 0, 0, 0, 0, 0, 0, 0, 0, 0, 0, 1, 0, 0, 0, 0, 0, 0, 0, 0, 0, 0, 0, 0, 0, 0, 0, 0, 0, 0, 0, 0, 0, 0, 0, 0, 0, 0, 0, 0, 0, 0, 0, 0, 0, 0, 0, 0, 0, 0, 0, 0, 0, 0, 0, 0, 0, 0, 0, 0, 0, 0, 0, 0, 0, 0, 0, 0, 0, 0, 0, 0, 0, 0, 0, 0, 0, 0, 0, 0, 0, 0, 0, 0, 0, 0, 0, 0, 0, 0, 0, 0, 0, 0, 0, 0, 0, 0, 0, 0, 0, 0, 0, 0, 0, 0, 0, 0, 0, 0, 0, 0, 0, 0, 0, 0, 0, 0, 0, 0, 0, 0, 0, 0, 0, 0, 0, 0, 0, 0, 0, 0, 0, 0, 0, 0, 0, 0, 0, 0, 0, 0, 0, 0, 0, 0, 0, 0, 0, 0, 0, 0, 0, 0, 0, 0, 0, 0, 0, 0, 0, 0, 0, 0, 0, 0, 0, 0, 0, 0, 0, 0, 0, 0, 0, 0, 0, 0, 0, 0, 0, 0, 0, 0, 0, 0, 0, 0, 0, 0, 0, 0, 0, 0, 0, 0, 0, 0, 0, 0, 0, 0, 0, 0, 0, 0, 0, 0, 0, 0, 0, 0, 0, 0, 0, 0, 0, 0, 0, 0, 0, 0, 0, 0, 0, 0, 0, 0, 0, 0, 0, 0, 0, 0, 0, 0, 0, 0, 0, 0, 0, 0, 0, 0, 0, 0, 0, 0, 0, 0, 0, 0, 0, 0, 0, 0, 0, 0, 0, 0, 0, 0, 0, 0, 0, 0, 0, 0, 0, 0, 0, 0, 0, 0, 0, 0, 0, 0, 0, 0, 0, 0, 0, 0, 0, 0, 0, 0, 0, 0, 0, 0, 0, 0, 0, 0, 0, 0, 1, 0, 0, 0, 0, 0, 0, 0, 0, 0, 0, 0, 0, 0, 0, 0, 0, 0, 0, 0, 0, 0, 0, 0, 0, 0, 0, 0, 0, 0, 0, 0, 0, 0, 0, 0, 0, 0, 0, 0, 0, 0, 0, 0, 0, 0, 0, 0, 0, 0, 0, 0, 0, 0, 0, 0, 0, 0, 0, 0, 0, 0, 0, 0, 0, 0, 0, 0, 0, 0, 0, 0, 0, 0, 0, 0, 0, 0, 0, 0, 0, 0, 0, 0, 0, 0, 0, 0, 0, 0, 0, 0, 0, 0, 0, 0, 0, 0, 0, 0, 0, 0, 0, 0, 0, 0, 0, 0, 0, 0, 0, 0, 0, 0, 0, 0, 0, 0, 0, 0, 0, 0, 0, 0, 0, 0, 0, 0, 0, 0, 0, 0, 0, 0, 0, 0, 0, 0, 0, 0, 0, 0, 0, 0, 0, 0, 0, 0, 0, 0, 0, 0, 0, 0, 0, 0, 0, 0, 0, 0, 0, 0, 0, 0, 0, 0, 0, 0, 0, 0, 0, 0, 0, 0, 0, 0, 0, 0, 0, 0, 0, 0, 0, 0, 0, 0, 0, 0, 0, 0, 0, 0, 0, 0, 0, 0, 0, 0, 0, 0, 0, 0, 0, 0, 0, 0, 0, 0, 0, 0, 0, 0, 0, 0, 0, 0, 0, 0, 0, 0, 0, 0, 0, 0, 0, 0, 0, 0, 0, 0, 0, 0, 0, 0, 0, 0, 0, 0, 0, 0, 0, 0, 0, 0, 0, 0, 0, 0, 0, 0, 0, 0, 0, 0, 0, 0, 0, 0, 0, 0, 0, 0, 0, 0, 0, 0, 0, 0, 0, 0, 0, 0, 0, 0, 0, 0, 0, 0, 0, 0, 0, 0, 0, 0, 0, 0, 0, 0, 0, 0, 0, 0, 0, 0, 0, 0, 0, 0, 0, 0, 0, 0, 0, 0, 0, 0, 0, 0, 0, 0, 0, 0, 0, 0, 0, 0, 0, 0, 0, 0, 0, 0, 0, 0, 0, 0, 0, 0, 0, 0, 0, 0, 0, 0, 1, 0, 0, 0, 0, 0, 0, 0, 0, 0, 0, 0, 0, 0, 0, 0, 0, 0, 0, 0, 0, 0, 0, 0, 0]);
